200
100
100
99
99
98
98
97
95
95
94
94
93
93
93
93
92
91
91
91
91
90
90
90
89
89
89
88
88
87
87
86
86
86
86
86
85
85
84
84
84
83
82
81
81
80
80
79
79
79
78
77
77
76
76
75
75
74
74
74
74
73
73
73
73
73
72
72
72
71
70
70
69
69
68
68
68
67
67
66
62
62
62
62
62
62
61
60
60
60
60
60
59
58
57
57
57
57
56
56
54
54
53
53
52
52
52
52
52
51
50
50
50
49
49
49
48
47
46
46
46
45
44
43
43
42
42
40
40
40
39
39
38
36
36
36
35
35
34
33
33
32
32
32
31
30
30
29
29
29
28
27
27
26
26
26
25
25
25
24
24
24
24
23
23
23
22
22
22
22
21
20
20
19
16
15
15
14
14
14
13
11
11
10
10
10
9
9
7
6
6
5
5
5
4
4
3
2
1
1
1
1
